(set-logic QF_S)
(declare-fun var0 () String)
(declare-fun var1 () String)
(declare-fun var2 () String)
(declare-fun var3 () String)
(declare-fun var4 () String)
(declare-fun var5 () String)
(declare-fun var6 () String)
(declare-fun var7 () String)
(declare-fun var8 () String)
(declare-fun var9 () String)
(declare-fun var10 () String)
(declare-fun var11 () String)
(declare-fun var12 () String)
(declare-fun var13 () String)
(declare-fun var14 () String)
(declare-fun var15 () String)
(declare-fun var16 () String)
(declare-fun var17 () String)
(declare-fun var18 () String)
(declare-fun var19 () String)
(declare-fun var20 () String)
(declare-fun var21 () String)
(declare-fun var22 () String)
(declare-fun var23 () String)
(declare-fun var24 () String)
(declare-fun var25 () String)
(declare-fun var26 () String)
(declare-fun var27 () String)
(declare-fun var28 () String)
(declare-fun var29 () String)
(declare-fun var30 () String)
(declare-fun var31 () String)
(declare-fun var32 () String)
(declare-fun var33 () String)
(declare-fun var34 () String)
(declare-fun var35 () String)
(declare-fun var36 () String)
(declare-fun var37 () String)
(declare-fun var38 () String)
(declare-fun var39 () String)
(declare-fun var40 () String)
(declare-fun var41 () String)
(declare-fun var42 () String)
(declare-fun var43 () String)
(declare-fun var44 () String)
(declare-fun var45 () String)
(declare-fun var46 () String)
(declare-fun var47 () String)
(declare-fun var48 () String)
(declare-fun var49 () String)
(declare-fun var50 () String)
(declare-fun var51 () String)
(declare-fun var52 () String)
(declare-fun var53 () String)
(declare-fun var54 () String)
(declare-fun var55 () String)
(declare-fun var56 () String)
(declare-fun var57 () String)
(declare-fun var58 () String)
(declare-fun var59 () String)
(declare-fun var60 () String)
(assert (= var0 (Concat var1 var2)))
(assert (= var2 (Concat var3 var4)))
(assert (= var4 (Concat var5 var6)))
(assert (= var6 (Concat var7 var8)))
(assert (= var8 (Concat var9 var10)))
(assert (= var10 (Concat var11 var12)))
(assert (= var12 (Concat var13 var14)))
(assert (= var14 (Concat var15 var16)))
(assert (= var16 (Concat var17 var18)))
(assert (= var18 (Concat var19 var20)))
(assert (= var20 (Concat var21 var22)))
(assert (= var22 (Concat var23 var24)))
(assert (= var24 (Concat var25 var26)))
(assert (= var26 (Concat var27 var28)))
(assert (= var28 (Concat var29 var30)))
(assert (= var30 (Concat var31 var32)))
(assert (= var32 (Concat var33 var34)))
(assert (= var34 (Concat var35 var36)))
(assert (= var36 (Concat var37 var38)))
(assert (= var38 (Concat var39 var40)))
(assert (= var40 (Concat var41 var42)))
(assert (= var42 (Concat var43 var44)))
(assert (= var44 (Concat var45 var46)))
(assert (= var46 (Concat var47 var48)))
(assert (= var48 (Concat var49 var50)))
(assert (= var50 (Concat var51 var52)))
(assert (= var52 (Concat var53 var54)))
(assert (= var54 (Concat var55 var56)))
(assert (= var56 (Concat var57 var58)))
(assert (= var58 (Concat var59 var60)))
(assert (= var0 "solution"))
(assert (= "H" (CharAt var36 694)))
(assert (= "$" (CharAt var49 830)))
(assert (= "0" (CharAt var50 550)))
(assert (= "q" (CharAt var2 988)))
(assert (= "_" (CharAt var20 903)))
(assert (= "a" (CharAt var36 500)))
(assert (= "*" (CharAt var31 622)))
(assert (= "g" (CharAt var44 250)))
(assert (= "t" (CharAt var26 648)))
(assert (= "2" (CharAt var19 718)))
(assert (= "l" (CharAt var47 104)))
(assert (= "X" (CharAt var39 381)))
(assert (= "1" (CharAt var25 49)))
(assert (= "P" (CharAt var16 872)))
(assert (= "l" (CharAt var51 985)))
(assert (= "," (CharAt var2 855)))
(assert (= "$" (CharAt var15 929)))
(assert (= "$" (CharAt var16 442)))
(assert (= ";" (CharAt var30 873)))
(assert (= "F" (CharAt var31 748)))
(assert (= "$" (CharAt var41 541)))
(assert (= "/" (CharAt var55 970)))
(assert (= "p" (CharAt var54 207)))
(assert (= "x" (CharAt var31 53)))
(assert (= "S" (CharAt var11 695)))
(assert (= "c" (CharAt var57 401)))
(assert (= "e" (CharAt var5 522)))
(assert (= "w" (CharAt var10 11)))
(assert (= "{" (CharAt var22 692)))
(assert (= "*" (CharAt var15 347)))
(assert (= "+" (CharAt var10 925)))
(assert (= "5" (CharAt var16 677)))
(assert (= "2" (CharAt var19 614)))
(assert (= "U" (CharAt var3 662)))
(assert (= ":" (CharAt var30 961)))
(assert (= "?" (CharAt var20 891)))
(assert (= "#" (CharAt var15 997)))
(assert (= "Y" (CharAt var0 349)))
(assert (= "i" (CharAt var47 967)))
(assert (= "r" (CharAt var34 134)))
(assert (= "3" (CharAt var17 983)))
(assert (= "B" (CharAt var38 275)))
(assert (= "9" (CharAt var42 504)))
(assert (= "1" (CharAt var45 450)))
(assert (= "!" (CharAt var48 543)))
(assert (= ";" (CharAt var32 184)))
(assert (= "p" (CharAt var0 103)))
(assert (= "i" (CharAt var0 572)))
(assert (= "`" (CharAt var35 543)))
(assert (= "]" (CharAt var20 389)))
(assert (= "=" (CharAt var53 659)))
(assert (= "n" (CharAt var9 321)))
(assert (= "}" (CharAt var34 655)))
(assert (= "2" (CharAt var23 81)))
(assert (= "^" (CharAt var2 269)))
(assert (= "-" (CharAt var17 51)))
(assert (= "Z" (CharAt var12 855)))
(assert (= "-" (CharAt var33 427)))
(assert (= "Z" (CharAt var10 360)))
(assert (= "k" (CharAt var18 114)))
(assert (= ")" (CharAt var58 815)))
(assert (= "J" (CharAt var34 891)))
(assert (= ":" (CharAt var22 478)))
(assert (= "-" (CharAt var22 103)))
(assert (= "z" (CharAt var46 991)))
(assert (= "{" (CharAt var56 186)))
(assert (= "@" (CharAt var10 60)))
(assert (= "b" (CharAt var16 371)))
(assert (= "@" (CharAt var15 725)))
(assert (= "t" (CharAt var37 221)))
(assert (= "^" (CharAt var57 390)))
(assert (= "q" (CharAt var6 625)))
(assert (= "2" (CharAt var54 851)))
(assert (= "!" (CharAt var7 59)))
(assert (= "V" (CharAt var53 908)))
(assert (= "&" (CharAt var49 592)))
(assert (= ":" (CharAt var19 187)))
(assert (= "n" (CharAt var41 968)))
(assert (= "c" (CharAt var50 169)))
(assert (= "9" (CharAt var16 372)))
(assert (= "?" (CharAt var36 228)))
(assert (= "#" (CharAt var30 637)))
(assert (= "i" (CharAt var56 629)))
(assert (= "\"" (CharAt var52 32)))
(assert (= "G" (CharAt var24 452)))
(assert (= "0" (CharAt var2 278)))
(assert (= "S" (CharAt var1 139)))
(assert (= "Y" (CharAt var4 331)))
(assert (= "8" (CharAt var23 669)))
(assert (= "S" (CharAt var32 440)))
(assert (= "." (CharAt var5 859)))
(assert (= "s" (CharAt var27 837)))
(assert (= "g" (CharAt var24 89)))
(assert (= "8" (CharAt var47 536)))
(assert (= "$" (CharAt var20 841)))
(assert (= "K" (CharAt var21 40)))
(assert (= "\"" (CharAt var38 647)))
(assert (= "N" (CharAt var48 936)))
(assert (= "+" (CharAt var18 441)))
(assert (= "d" (CharAt var40 466)))
(assert (= "D" (CharAt var12 169)))
(assert (= "&" (CharAt var21 398)))
(assert (= "|" (CharAt var43 982)))
(assert (= "p" (CharAt var9 733)))
(assert (= "_" (CharAt var10 399)))
(assert (= "_" (CharAt var37 748)))
(assert (= "S" (CharAt var41 584)))
(assert (= "'" (CharAt var37 236)))
(assert (= "h" (CharAt var52 208)))
(assert (= "F" (CharAt var25 45)))
(assert (= "n" (CharAt var59 175)))
(assert (= ")" (CharAt var1 870)))
(assert (= ")" (CharAt var48 382)))
(assert (= "5" (CharAt var14 290)))
(assert (= "#" (CharAt var57 888)))
(assert (= "p" (CharAt var29 281)))
(assert (= "I" (CharAt var9 36)))
(assert (= "6" (CharAt var3 396)))
(assert (= "M" (CharAt var20 858)))
(assert (= "c" (CharAt var55 377)))
(assert (= "t" (CharAt var44 281)))
(assert (= "A" (CharAt var54 682)))
(assert (= "M" (CharAt var4 867)))
(assert (= ")" (CharAt var30 66)))
(assert (= "c" (CharAt var41 367)))
(assert (= "m" (CharAt var44 750)))
(assert (= "b" (CharAt var32 675)))
(assert (= "9" (CharAt var33 960)))
(assert (= "*" (CharAt var15 66)))
(assert (= "'" (CharAt var8 70)))
(assert (= "k" (CharAt var18 138)))
(assert (= "6" (CharAt var37 203)))
(assert (= ";" (CharAt var27 765)))
(assert (= "J" (CharAt var28 430)))
(assert (= "k" (CharAt var40 418)))
(assert (= ">" (CharAt var50 683)))
(assert (= "5" (CharAt var51 400)))
(assert (= "V" (CharAt var42 968)))
(assert (= "V" (CharAt var54 51)))
(assert (= "1" (CharAt var40 533)))
(assert (= "j" (CharAt var45 89)))
(assert (= "_" (CharAt var13 614)))
(assert (= "l" (CharAt var11 370)))
(assert (= "4" (CharAt var10 40)))
(assert (= "," (CharAt var38 42)))
(assert (= "k" (CharAt var16 582)))
(assert (= "e" (CharAt var51 440)))
(assert (= "'" (CharAt var39 670)))
(assert (= "J" (CharAt var20 643)))
(assert (= "G" (CharAt var33 687)))
(assert (= "!" (CharAt var26 127)))
(assert (= "." (CharAt var52 281)))
(assert (= "2" (CharAt var17 148)))
(assert (= "|" (CharAt var28 242)))
(assert (= "h" (CharAt var41 739)))
(assert (= "X" (CharAt var12 746)))
(assert (= "'" (CharAt var44 991)))
(assert (= "U" (CharAt var30 810)))
(assert (= "D" (CharAt var48 540)))
(assert (= "3" (CharAt var2 615)))
(assert (= "'" (CharAt var46 797)))
(assert (= "S" (CharAt var60 310)))
(assert (= "u" (CharAt var23 500)))
(assert (= "R" (CharAt var40 19)))
(assert (= "&" (CharAt var1 282)))
(assert (= "i" (CharAt var18 863)))
(assert (= "Y" (CharAt var3 844)))
(assert (= "]" (CharAt var30 117)))
(assert (= "W" (CharAt var13 688)))
(assert (= "i" (CharAt var26 307)))
(assert (= "E" (CharAt var60 139)))
(assert (= "/" (CharAt var19 265)))
(assert (= "{" (CharAt var14 789)))
(assert (= "(" (CharAt var56 326)))
(assert (= "'" (CharAt var46 792)))
(assert (= "/" (CharAt var11 312)))
(assert (= "+" (CharAt var15 553)))
(assert (= "C" (CharAt var0 292)))
(assert (= "@" (CharAt var23 12)))
(assert (= "7" (CharAt var36 276)))
(assert (= "l" (CharAt var60 805)))
(assert (= "1" (CharAt var11 147)))
(assert (= "B" (CharAt var4 370)))
(assert (= "(" (CharAt var52 226)))
(assert (= "I" (CharAt var28 580)))
(assert (= "X" (CharAt var41 46)))
(assert (= "i" (CharAt var3 302)))
(assert (= "l" (CharAt var26 957)))
(assert (= "T" (CharAt var40 308)))
(assert (= "@" (CharAt var42 589)))
(assert (= "&" (CharAt var1 359)))
(assert (= "k" (CharAt var57 576)))
(assert (= "[" (CharAt var33 721)))
(assert (= "<" (CharAt var42 454)))
(assert (= "X" (CharAt var25 262)))
(assert (= "-" (CharAt var48 273)))
(assert (= "f" (CharAt var32 467)))
(assert (= "'" (CharAt var0 168)))
(assert (= "!" (CharAt var54 62)))
(assert (= "d" (CharAt var59 158)))
(assert (= "Y" (CharAt var30 815)))
(assert (= "k" (CharAt var57 639)))
(assert (= "g" (CharAt var46 682)))
(assert (= "1" (CharAt var45 635)))
(assert (= "I" (CharAt var59 834)))
(assert (= "d" (CharAt var35 968)))
(assert (= "N" (CharAt var33 470)))
(assert (= "*" (CharAt var32 269)))
(assert (= "&" (CharAt var1 102)))
(assert (= "m" (CharAt var38 487)))
(assert (= "<" (CharAt var19 644)))
(assert (= "+" (CharAt var59 21)))
(assert (= "*" (CharAt var52 836)))
(assert (= "#" (CharAt var25 358)))
(assert (= "S" (CharAt var50 708)))
(assert (= "W" (CharAt var5 967)))
(assert (= "w" (CharAt var30 847)))
(assert (= "z" (CharAt var17 924)))
(assert (= "r" (CharAt var29 813)))
(assert (= "k" (CharAt var15 709)))
(assert (= "P" (CharAt var16 354)))
(assert (= "`" (CharAt var14 286)))
(assert (= "T" (CharAt var8 679)))
(assert (= "N" (CharAt var23 925)))
(assert (= "L" (CharAt var41 515)))
(assert (= "N" (CharAt var24 901)))
(assert (= "z" (CharAt var28 690)))
(assert (= "O" (CharAt var14 44)))
(assert (= "K" (CharAt var59 629)))
(assert (= "x" (CharAt var34 354)))
(assert (= "l" (CharAt var16 527)))
(assert (= "Y" (CharAt var28 298)))
(assert (= "l" (CharAt var2 928)))
(assert (= "y" (CharAt var7 28)))
(assert (= "0" (CharAt var13 204)))
(assert (= "1" (CharAt var39 267)))
(assert (= "!" (CharAt var4 728)))
(assert (= "Q" (CharAt var7 688)))
(assert (= "O" (CharAt var52 648)))
(assert (= "(" (CharAt var46 629)))
(assert (= "U" (CharAt var6 919)))
(assert (= "j" (CharAt var13 276)))
(assert (= "R" (CharAt var0 705)))
(assert (= "g" (CharAt var46 745)))
(assert (= "_" (CharAt var57 809)))
(assert (= "R" (CharAt var11 90)))
(assert (= "1" (CharAt var34 197)))
(assert (= "Z" (CharAt var50 258)))
(assert (= "7" (CharAt var54 511)))
(assert (= "8" (CharAt var9 887)))
(assert (= "(" (CharAt var11 773)))
(assert (= "c" (CharAt var1 939)))
(assert (= "G" (CharAt var17 730)))
(assert (= "H" (CharAt var10 785)))
(assert (= "k" (CharAt var57 486)))
(assert (= "B" (CharAt var14 536)))
(assert (= "b" (CharAt var39 540)))
(assert (= "B" (CharAt var40 833)))
(assert (= "f" (CharAt var48 94)))
(assert (= "*" (CharAt var40 987)))
(assert (= "x" (CharAt var52 403)))
(assert (= "h" (CharAt var56 156)))
(assert (= "j" (CharAt var6 543)))
(assert (= "6" (CharAt var7 521)))
(assert (= "9" (CharAt var26 159)))
(assert (= "4" (CharAt var38 682)))
(assert (= "l" (CharAt var25 799)))
(assert (= ">" (CharAt var31 613)))
(assert (= "D" (CharAt var3 773)))
(assert (= "L" (CharAt var11 177)))
(assert (= "4" (CharAt var58 308)))
(assert (= "[" (CharAt var17 123)))
(assert (= "[" (CharAt var6 877)))
(assert (= "." (CharAt var7 262)))
(assert (= "Z" (CharAt var26 847)))
(assert (= "L" (CharAt var24 19)))
(assert (= "Q" (CharAt var52 574)))
(assert (= "o" (CharAt var47 292)))
(assert (= "_" (CharAt var24 773)))
(assert (= "K" (CharAt var49 153)))
(assert (= "J" (CharAt var44 86)))
(assert (= "4" (CharAt var41 590)))
(assert (= "V" (CharAt var44 559)))
(assert (= "V" (CharAt var41 544)))
(assert (= "N" (CharAt var35 378)))
(assert (= "y" (CharAt var41 710)))
(assert (= "G" (CharAt var7 893)))
(assert (= "b" (CharAt var39 772)))
(assert (= "r" (CharAt var0 488)))
(assert (= "_" (CharAt var6 986)))
(assert (= "?" (CharAt var37 338)))
(assert (= "9" (CharAt var53 840)))
(assert (= "L" (CharAt var51 364)))
(assert (= "M" (CharAt var10 796)))
(assert (= "B" (CharAt var38 606)))
(assert (= "R" (CharAt var20 395)))
(assert (= "?" (CharAt var40 759)))
(assert (= "X" (CharAt var39 62)))
(assert (= "4" (CharAt var43 637)))
(assert (= "b" (CharAt var21 289)))
(assert (= "O" (CharAt var21 281)))
(assert (= "S" (CharAt var37 685)))
(assert (= "T" (CharAt var0 498)))
(assert (= "X" (CharAt var59 447)))
(assert (= "F" (CharAt var49 350)))
(assert (= "<" (CharAt var17 177)))
(assert (= "W" (CharAt var3 941)))
(assert (= "-" (CharAt var15 677)))
(assert (= "/" (CharAt var51 587)))
(assert (= "(" (CharAt var45 12)))
(assert (= "}" (CharAt var7 797)))
(assert (= "v" (CharAt var2 290)))
(assert (= "3" (CharAt var36 218)))
(assert (= "7" (CharAt var0 784)))
(assert (= "2" (CharAt var58 400)))
(assert (= "R" (CharAt var28 923)))
(assert (= "\"" (CharAt var41 770)))
(assert (= "!" (CharAt var39 380)))
(assert (= "q" (CharAt var26 450)))
(assert (= "p" (CharAt var24 926)))
(assert (= "L" (CharAt var0 844)))
(assert (= "O" (CharAt var1 699)))
(assert (= "m" (CharAt var0 726)))
(assert (= "x" (CharAt var53 85)))
(assert (= "!" (CharAt var38 166)))
(assert (= "x" (CharAt var33 79)))
(assert (= "W" (CharAt var23 666)))
(assert (= "i" (CharAt var37 260)))
(assert (= ")" (CharAt var17 667)))
(assert (= "&" (CharAt var5 467)))
(assert (= "B" (CharAt var59 145)))
(assert (= "4" (CharAt var44 660)))
(assert (= "N" (CharAt var47 39)))
(assert (= "7" (CharAt var45 64)))
(assert (= "O" (CharAt var41 320)))
(assert (= "h" (CharAt var52 416)))
(assert (= "U" (CharAt var49 149)))
(assert (= "~" (CharAt var12 651)))
(assert (= "_" (CharAt var15 785)))
(assert (= "g" (CharAt var60 19)))
(assert (= "c" (CharAt var47 614)))
(assert (= "*" (CharAt var25 739)))
(assert (= "t" (CharAt var60 750)))
(assert (= "M" (CharAt var1 150)))
(assert (= "h" (CharAt var38 784)))
(assert (= "6" (CharAt var17 885)))
(assert (= "w" (CharAt var34 448)))
(assert (= "=" (CharAt var44 246)))
(assert (= "q" (CharAt var14 610)))
(assert (= "o" (CharAt var33 437)))
(assert (= "1" (CharAt var26 373)))
(assert (= "E" (CharAt var25 762)))
(assert (= "`" (CharAt var5 407)))
(assert (= "6" (CharAt var30 523)))
(assert (= "$" (CharAt var59 989)))
(assert (= "k" (CharAt var32 237)))
(assert (= "%" (CharAt var27 170)))
(assert (= ">" (CharAt var11 601)))
(assert (= "|" (CharAt var29 650)))
(assert (= "!" (CharAt var56 561)))
(assert (= "5" (CharAt var60 998)))
(assert (= "Z" (CharAt var25 194)))
(assert (= "y" (CharAt var14 343)))
(assert (= "!" (CharAt var50 922)))
(assert (= "x" (CharAt var46 316)))
(assert (= "?" (CharAt var40 865)))
(assert (= "m" (CharAt var8 765)))
(assert (= "`" (CharAt var37 836)))
(assert (= "~" (CharAt var53 566)))
(assert (= "7" (CharAt var43 311)))
(assert (= "z" (CharAt var7 347)))
(assert (= "U" (CharAt var34 958)))
(assert (= "z" (CharAt var30 568)))
(assert (= "_" (CharAt var26 709)))
(assert (= "k" (CharAt var22 367)))
(assert (= "p" (CharAt var14 236)))
(assert (= ";" (CharAt var7 574)))
(assert (= "m" (CharAt var56 808)))
(assert (= "~" (CharAt var52 942)))
(assert (= "<" (CharAt var23 210)))
(assert (= "4" (CharAt var15 117)))
(assert (= "D" (CharAt var10 63)))
(assert (= "q" (CharAt var36 416)))
(assert (= "k" (CharAt var18 506)))
(assert (= "^" (CharAt var15 97)))
(assert (= "u" (CharAt var5 410)))
(assert (= "g" (CharAt var41 677)))
(assert (= "E" (CharAt var45 381)))
(assert (= "Q" (CharAt var9 763)))
(assert (= "6" (CharAt var12 16)))
(assert (= "U" (CharAt var37 885)))
(assert (= "/" (CharAt var45 958)))
(assert (= "8" (CharAt var60 989)))
(assert (= "<" (CharAt var34 396)))
(assert (= "y" (CharAt var15 465)))
(assert (= "P" (CharAt var48 924)))
(assert (= "a" (CharAt var18 98)))
(assert (= "I" (CharAt var25 156)))
(assert (= ")" (CharAt var35 261)))
(assert (= "t" (CharAt var53 969)))
(assert (= "S" (CharAt var43 878)))
(check-sat)